(set-logic QF_LIA)
(set-info :ran/ran_3_1.smt2)
(set-info :smt-lib-version 2.0)
(declare-fun x0 () Int)
(declare-fun x1 () Real)
(declare-fun x2 () Real)
(define-fun ie0 () Bool (<= (+ (* (- 90) x1) (* 91 x2) ) 77))
(define-fun ie1 () Bool (<= (+ (* (- 37) x2) (* 65 x0) ) (- 38)))
(define-fun ie2 () Bool (<= (+ (* 65 x0) (* (- 96) x2) ) 31))
(define-fun ie3 () Bool (<= (+ (* (- 72) x0) (* (- 4) x0) ) (- 5)))
(define-fun ie4 () Bool (<= (+ (* (- 48) x0) (* (- 21) x0) ) (- 13)))
(define-fun ie5 () Bool (<= (+ (* (- 100) x2) (* (- 54) x0) ) 88))
(assert ie0)
(assert ie1)
(assert ie2)
(assert ie3)
(assert ie4)
(assert ie5)
(check-sat)
(exit)
